p tw 100 16501 2 
1 3 
1 4 
1 5 
1 6 
1 7 
1 8 
1 9 
1 10 
1 11 
1 12 
1 13 
1 14 
1 15 
1 16 
1 17 
1 18 
1 19 
1 20 
1 21 
1 22 
1 23 
1 29 
1 37 
1 45 
1 52 
1 59 
1 71 
1 72 
1 73 
1 74 
1 75 
1 76 
2 3 
2 4 
2 5 
2 6 
2 7 
2 8 
2 9 
2 10 
2 11 
2 12 
2 13 
2 22 
2 24 
2 25 
2 26 
2 27 
2 28 
2 29 
2 30 
2 31 
2 32 
2 33 
2 42 
2 49 
2 54 
2 60 
2 70 
2 75 
2 84 
2 87 
2 94 
2 98 
3 4 
3 5 
3 6 
3 7 
3 8 
3 9 
3 10 
3 11 
3 12 
3 14 
3 21 
3 24 
3 27 
3 34 
3 35 
3 36 
3 37 
3 38 
3 39 
3 40 
3 41 
3 42 
3 46 
3 55 
3 68 
3 73 
3 82 
3 90 
3 92 
3 96 
3 98 
4 5 
4 6 
4 7 
4 8 
4 9 
4 10 
4 11 
4 12 
4 15 
4 17 
4 25 
4 27 
4 34 
4 36 
4 43 
4 44 
4 45 
4 46 
4 47 
4 48 
4 49 
4 50 
4 51 
4 58 
4 59 
4 60 
4 61 
4 62 
4 63 
4 64 
5 6 
5 7 
5 8 
5 9 
5 10 
5 11 
5 12 
5 16 
5 18 
5 26 
5 28 
5 35 
5 37 
5 43 
5 44 
5 51 
5 52 
5 53 
5 54 
5 55 
5 56 
5 57 
5 58 
5 65 
5 66 
5 67 
5 68 
5 69 
5 70 
6 7 
6 8 
6 9 
6 10 
6 11 
6 12 
6 13 
6 15 
6 33 
6 35 
6 38 
6 46 
6 53 
6 60 
6 62 
6 65 
6 66 
6 71 
6 75 
6 77 
6 78 
6 79 
6 80 
6 81 
6 88 
6 95 
6 96 
6 97 
7 8 
7 9 
7 10 
7 11 
7 12 
7 16 
7 19 
7 30 
7 32 
7 34 
7 39 
7 43 
7 58 
7 59 
7 65 
7 72 
7 77 
7 81 
7 82 
7 83 
7 84 
7 85 
7 88 
7 91 
7 92 
7 93 
7 94 
8 9 
8 10 
8 11 
8 12 
8 20 
8 22 
8 24 
8 31 
8 39 
8 47 
8 50 
8 51 
8 56 
8 61 
8 66 
8 69 
8 72 
8 73 
8 78 
8 79 
8 85 
8 86 
8 87 
8 92 
8 95 
8 99 
9 10 
9 11 
9 12 
9 14 
9 20 
9 30 
9 33 
9 38 
9 47 
9 48 
9 52 
9 54 
9 61 
9 64 
9 67 
9 68 
9 74 
9 80 
9 84 
9 88 
9 89 
9 90 
9 91 
9 99 
9 100 
10 11 
10 12 
10 17 
10 18 
10 29 
10 32 
10 40 
10 41 
10 45 
10 49 
10 53 
10 57 
10 63 
10 69 
10 77 
10 82 
10 86 
10 87 
10 89 
10 90 
10 91 
10 95 
10 97 
10 100 
11 12 
11 19 
11 23 
11 28 
11 31 
11 36 
11 42 
11 44 
11 48 
11 55 
11 56 
11 64 
11 71 
11 76 
11 79 
11 83 
11 86 
11 89 
11 93 
11 94 
11 96 
11 97 
11 100 
12 21 
12 23 
12 25 
12 26 
12 40 
12 41 
12 50 
12 57 
12 62 
12 63 
12 67 
12 70 
12 74 
12 76 
12 78 
12 80 
12 81 
12 83 
12 85 
12 93 
12 98 
12 99 
13 14 
13 15 
13 16 
13 17 
13 18 
13 19 
13 20 
13 21 
13 22 
13 23 
13 24 
13 25 
13 26 
13 27 
13 28 
13 29 
13 30 
13 31 
13 32 
13 33 
13 38 
13 46 
13 53 
13 60 
13 65 
13 71 
13 77 
13 78 
13 79 
13 80 
14 15 
14 16 
14 17 
14 18 
14 19 
14 20 
14 21 
14 22 
14 23 
14 24 
14 33 
14 34 
14 35 
14 36 
14 37 
14 38 
14 39 
14 40 
14 41 
14 42 
14 47 
14 52 
14 64 
14 68 
14 80 
14 84 
14 91 
14 99 
14 100 
15 16 
15 17 
15 18 
15 19 
15 20 
15 21 
15 22 
15 23 
15 25 
15 33 
15 34 
15 35 
15 43 
15 44 
15 45 
15 46 
15 47 
15 48 
15 49 
15 50 
15 62 
15 66 
15 75 
15 81 
15 88 
15 95 
15 96 
15 97 
16 17 
16 18 
16 19 
16 20 
16 21 
16 22 
16 23 
16 26 
16 32 
16 34 
16 35 
16 43 
16 51 
16 52 
16 53 
16 54 
16 55 
16 56 
16 57 
16 59 
16 65 
16 85 
16 88 
16 91 
16 92 
16 93 
16 94 
17 18 
17 19 
17 20 
17 21 
17 22 
17 23 
17 27 
17 32 
17 36 
17 41 
17 45 
17 51 
17 57 
17 58 
17 59 
17 60 
17 61 
17 62 
17 63 
17 64 
17 69 
17 77 
17 87 
17 90 
17 97 
17 100 
18 19 
18 20 
18 21 
18 22 
18 23 
18 28 
18 29 
18 37 
18 40 
18 44 
18 49 
18 53 
18 58 
18 63 
18 65 
18 66 
18 67 
18 68 
18 69 
18 70 
18 82 
18 86 
18 89 
18 91 
18 95 
19 20 
19 21 
19 22 
19 23 
19 30 
19 31 
19 39 
19 42 
19 43 
19 44 
19 55 
19 58 
19 64 
19 72 
19 76 
19 77 
19 79 
19 81 
19 82 
19 83 
19 84 
19 89 
19 93 
19 97 
20 21 
20 22 
20 23 
20 30 
20 31 
20 38 
20 39 
20 47 
20 48 
20 51 
20 54 
20 61 
20 66 
20 67 
20 73 
20 74 
20 78 
20 85 
20 86 
20 87 
20 88 
20 89 
20 90 
21 22 
21 23 
21 25 
21 27 
21 40 
21 46 
21 55 
21 57 
21 62 
21 68 
21 70 
21 73 
21 74 
21 78 
21 82 
21 83 
21 90 
21 92 
21 93 
21 96 
21 98 
21 99 
22 23 
22 24 
22 42 
22 49 
22 50 
22 54 
22 56 
22 60 
22 61 
22 69 
22 70 
22 72 
22 75 
22 79 
22 84 
22 87 
22 92 
22 94 
22 95 
22 98 
22 99 
23 26 
23 28 
23 36 
23 41 
23 48 
23 50 
23 56 
23 63 
23 67 
23 71 
23 76 
23 80 
23 81 
23 83 
23 85 
23 86 
23 94 
23 96 
23 98 
23 100 
24 25 
24 26 
24 27 
24 28 
24 29 
24 30 
24 31 
24 32 
24 33 
24 34 
24 35 
24 36 
24 37 
24 38 
24 39 
24 40 
24 41 
24 42 
24 50 
24 56 
24 61 
24 69 
24 72 
24 79 
24 92 
24 95 
24 99 
25 26 
25 27 
25 28 
25 29 
25 30 
25 31 
25 32 
25 33 
25 34 
25 40 
25 43 
25 44 
25 45 
25 46 
25 47 
25 48 
25 49 
25 50 
25 57 
25 62 
25 70 
25 74 
25 78 
25 83 
25 93 
25 99 
26 27 
26 28 
26 29 
26 30 
26 31 
26 32 
26 33 
26 35 
26 41 
26 43 
26 50 
26 51 
26 52 
26 53 
26 54 
26 55 
26 56 
26 57 
26 63 
26 67 
26 76 
26 80 
26 81 
26 85 
26 98 
27 28 
27 29 
27 30 
27 31 
27 32 
27 33 
27 36 
27 46 
27 51 
27 55 
27 58 
27 59 
27 60 
27 61 
27 62 
27 63 
27 64 
27 68 
27 73 
27 82 
27 90 
27 92 
27 96 
27 98 
28 29 
28 30 
28 31 
28 32 
28 33 
28 36 
28 37 
28 44 
28 48 
28 56 
28 58 
28 65 
28 66 
28 67 
28 68 
28 69 
28 70 
28 71 
28 83 
28 86 
28 94 
28 96 
28 100 
29 30 
29 31 
29 32 
29 33 
29 37 
29 40 
29 45 
29 49 
29 52 
29 53 
29 59 
29 63 
29 71 
29 72 
29 73 
29 74 
29 75 
29 76 
29 82 
29 86 
29 89 
29 91 
29 95 
30 31 
30 32 
30 33 
30 38 
30 39 
30 43 
30 48 
30 54 
30 58 
30 61 
30 67 
30 72 
30 74 
30 77 
30 81 
30 82 
30 83 
30 84 
30 88 
30 89 
30 90 
31 32 
31 33 
31 39 
31 42 
31 44 
31 47 
31 51 
31 55 
31 64 
31 66 
31 73 
31 76 
31 78 
31 79 
31 85 
31 86 
31 87 
31 89 
31 93 
31 97 
32 33 
32 34 
32 41 
32 45 
32 57 
32 59 
32 65 
32 69 
32 77 
32 85 
32 87 
32 88 
32 90 
32 91 
32 92 
32 93 
32 94 
32 97 
32 100 
33 35 
33 47 
33 52 
33 62 
33 64 
33 66 
33 68 
33 75 
33 80 
33 81 
33 84 
33 88 
33 91 
33 95 
33 96 
33 97 
33 99 
33 100 
34 35 
34 36 
34 37 
34 38 
34 39 
34 40 
34 41 
34 42 
34 43 
34 44 
34 45 
34 46 
34 47 
34 48 
34 49 
34 50 
34 59 
34 65 
34 85 
34 88 
34 91 
34 92 
34 93 
34 94 
35 36 
35 37 
35 38 
35 39 
35 40 
35 41 
35 42 
35 43 
35 51 
35 52 
35 53 
35 54 
35 55 
35 56 
35 57 
35 62 
35 66 
35 75 
35 81 
35 88 
35 95 
35 96 
35 97 
36 37 
36 38 
36 39 
36 40 
36 41 
36 42 
36 48 
36 51 
36 56 
36 58 
36 59 
36 60 
36 61 
36 62 
36 63 
36 64 
36 71 
36 83 
36 86 
36 94 
36 96 
36 100 
37 38 
37 39 
37 40 
37 41 
37 42 
37 44 
37 45 
37 52 
37 58 
37 59 
37 65 
37 66 
37 67 
37 68 
37 69 
37 70 
37 71 
37 72 
37 73 
37 74 
37 75 
37 76 
38 39 
38 40 
38 41 
38 42 
38 46 
38 48 
38 53 
38 54 
38 60 
38 61 
38 65 
38 67 
38 71 
38 74 
38 77 
38 78 
38 79 
38 80 
38 88 
38 89 
38 90 
39 40 
39 41 
39 42 
39 43 
39 47 
39 51 
39 58 
39 66 
39 72 
39 73 
39 77 
39 78 
39 81 
39 82 
39 83 
39 84 
39 85 
39 86 
39 87 
40 41 
40 42 
40 49 
40 53 
40 57 
40 62 
40 63 
40 70 
40 74 
40 78 
40 82 
40 83 
40 86 
40 89 
40 91 
40 93 
40 95 
40 99 
41 42 
41 45 
41 50 
41 57 
41 63 
41 67 
41 69 
41 76 
41 77 
41 80 
41 81 
41 85 
41 87 
41 90 
41 97 
41 98 
41 100 
42 44 
42 49 
42 54 
42 55 
42 60 
42 64 
42 70 
42 75 
42 76 
42 79 
42 84 
42 87 
42 89 
42 93 
42 94 
42 97 
42 98 
43 44 
43 45 
43 46 
43 47 
43 48 
43 49 
43 50 
43 51 
43 52 
43 53 
43 54 
43 55 
43 56 
43 57 
43 58 
43 72 
43 77 
43 81 
43 82 
43 83 
43 84 
44 45 
44 46 
44 47 
44 48 
44 49 
44 50 
44 55 
44 58 
44 64 
44 65 
44 66 
44 67 
44 68 
44 69 
44 70 
44 76 
44 79 
44 89 
44 93 
44 97 
45 46 
45 47 
45 48 
45 49 
45 50 
45 52 
45 57 
45 59 
45 69 
45 71 
45 72 
45 73 
45 74 
45 75 
45 76 
45 77 
45 87 
45 90 
45 97 
45 100 
46 47 
46 48 
46 49 
46 50 
46 53 
46 55 
46 60 
46 65 
46 68 
46 71 
46 73 
46 77 
46 78 
46 79 
46 80 
46 82 
46 90 
46 92 
46 96 
46 98 
47 48 
47 49 
47 50 
47 51 
47 52 
47 64 
47 66 
47 68 
47 73 
47 78 
47 80 
47 84 
47 85 
47 86 
47 87 
47 91 
47 99 
47 100 
48 49 
48 50 
48 54 
48 56 
48 61 
48 67 
48 71 
48 74 
48 83 
48 86 
48 88 
48 89 
48 90 
48 94 
48 96 
48 100 
49 50 
49 53 
49 54 
49 60 
49 63 
49 70 
49 75 
49 82 
49 84 
49 86 
49 87 
49 89 
49 91 
49 94 
49 95 
49 98 
50 56 
50 61 
50 63 
50 67 
50 69 
50 72 
50 76 
50 79 
50 80 
50 81 
50 85 
50 92 
50 95 
50 98 
50 99 
51 52 
51 53 
51 54 
51 55 
51 56 
51 57 
51 58 
51 59 
51 60 
51 61 
51 62 
51 63 
51 64 
51 66 
51 73 
51 78 
51 85 
51 86 
51 87 
52 53 
52 54 
52 55 
52 56 
52 57 
52 59 
52 64 
52 68 
52 71 
52 72 
52 73 
52 74 
52 75 
52 76 
52 80 
52 84 
52 91 
52 99 
52 100 
53 54 
53 55 
53 56 
53 57 
53 60 
53 63 
53 65 
53 71 
53 77 
53 78 
53 79 
53 80 
53 82 
53 86 
53 89 
53 91 
53 95 
54 55 
54 56 
54 57 
54 60 
54 61 
54 67 
54 70 
54 74 
54 75 
54 84 
54 87 
54 88 
54 89 
54 90 
54 94 
54 98 
55 56 
55 57 
55 64 
55 68 
55 73 
55 76 
55 79 
55 82 
55 89 
55 90 
55 92 
55 93 
55 96 
55 97 
55 98 
56 57 
56 61 
56 69 
56 71 
56 72 
56 79 
56 83 
56 86 
56 92 
56 94 
56 95 
56 96 
56 99 
56 100 
57 62 
57 69 
57 70 
57 74 
57 77 
57 78 
57 83 
57 87 
57 90 
57 93 
57 97 
57 99 
57 100 
58 59 
58 60 
58 61 
58 62 
58 63 
58 64 
58 65 
58 66 
58 67 
58 68 
58 69 
58 70 
58 72 
58 77 
58 81 
58 82 
58 83 
58 84 
59 60 
59 61 
59 62 
59 63 
59 64 
59 65 
59 71 
59 72 
59 73 
59 74 
59 75 
59 76 
59 85 
59 88 
59 91 
59 92 
59 93 
59 94 
60 61 
60 62 
60 63 
60 64 
60 65 
60 70 
60 71 
60 75 
60 77 
60 78 
60 79 
60 80 
60 84 
60 87 
60 94 
60 98 
61 62 
61 63 
61 64 
61 67 
61 69 
61 72 
61 74 
61 79 
61 88 
61 89 
61 90 
61 92 
61 95 
61 99 
62 63 
62 64 
62 66 
62 70 
62 74 
62 75 
62 78 
62 81 
62 83 
62 88 
62 93 
62 95 
62 96 
62 97 
62 99 
63 64 
63 67 
63 76 
63 80 
63 81 
63 82 
63 85 
63 86 
63 89 
63 91 
63 95 
63 98 
64 68 
64 76 
64 79 
64 80 
64 84 
64 89 
64 91 
64 93 
64 97 
64 99 
64 100 
65 66 
65 67 
65 68 
65 69 
65 70 
65 71 
65 77 
65 78 
65 79 
65 80 
65 85 
65 88 
65 91 
65 92 
65 93 
65 94 
66 67 
66 68 
66 69 
66 70 
66 73 
66 75 
66 78 
66 81 
66 85 
66 86 
66 87 
66 88 
66 95 
66 96 
66 97 
67 68 
67 69 
67 70 
67 74 
67 76 
67 80 
67 81 
67 85 
67 88 
67 89 
67 90 
67 98 
68 69 
68 70 
68 73 
68 80 
68 82 
68 84 
68 90 
68 91 
68 92 
68 96 
68 98 
68 99 
68 100 
69 70 
69 72 
69 77 
69 79 
69 87 
69 90 
69 92 
69 95 
69 97 
69 99 
69 100 
70 74 
70 75 
70 78 
70 83 
70 84 
70 87 
70 93 
70 94 
70 98 
70 99 
71 72 
71 73 
71 74 
71 75 
71 76 
71 77 
71 78 
71 79 
71 80 
71 83 
71 86 
71 94 
71 96 
71 100 
72 73 
72 74 
72 75 
72 76 
72 77 
72 79 
72 81 
72 82 
72 83 
72 84 
72 92 
72 95 
72 99 
73 74 
73 75 
73 76 
73 78 
73 82 
73 85 
73 86 
73 87 
73 90 
73 92 
73 96 
73 98 
74 75 
74 76 
74 78 
74 83 
74 88 
74 89 
74 90 
74 93 
74 99 
75 76 
75 81 
75 84 
75 87 
75 88 
75 94 
75 95 
75 96 
75 97 
75 98 
76 79 
76 80 
76 81 
76 85 
76 89 
76 93 
76 97 
76 98 
77 78 
77 79 
77 80 
77 81 
77 82 
77 83 
77 84 
77 87 
77 90 
77 97 
77 100 
78 79 
78 80 
78 83 
78 85 
78 86 
78 87 
78 93 
78 99 
79 80 
79 89 
79 92 
79 93 
79 95 
79 97 
79 99 
80 81 
80 84 
80 85 
80 91 
80 98 
80 99 
80 100 
81 82 
81 83 
81 84 
81 85 
81 88 
81 95 
81 96 
81 97 
81 98 
82 83 
82 84 
82 86 
82 89 
82 90 
82 91 
82 92 
82 95 
82 96 
82 98 
83 84 
83 86 
83 93 
83 94 
83 96 
83 99 
83 100 
84 87 
84 91 
84 94 
84 98 
84 99 
84 100 
85 86 
85 87 
85 88 
85 91 
85 92 
85 93 
85 94 
85 98 
86 87 
86 89 
86 91 
86 94 
86 95 
86 96 
86 100 
87 90 
87 94 
87 97 
87 98 
87 100 
88 89 
88 90 
88 91 
88 92 
88 93 
88 94 
88 95 
88 96 
88 97 
89 90 
89 91 
89 93 
89 95 
89 97 
90 92 
90 96 
90 97 
90 98 
90 100 
91 92 
91 93 
91 94 
91 95 
91 99 
91 100 
92 93 
92 94 
92 95 
92 96 
92 98 
92 99 
93 94 
93 97 
93 99 
94 96 
94 98 
94 100 
95 96 
95 97 
95 99 
96 97 
96 98 
96 100 
97 100 
99 100 
